NAME : kroC100-C-3-1-a__bsl__28584.tour
COMMENT : Length = 28584.000
COMMENT : Generated by compare_sota_instances.py for bsl
TYPE : TOUR
DIMENSION : 100
TOUR_SECTION
51
16
63
44
66
48
84
11
52
87
96
97
81
45
33
100
74
57
36
10
92
99
60
4
93
1
53
85
40
12
46
61
26
7
32
24
78
82
9
37
29
18
49
19
14
69
23
91
94
70
76
95
86
43
5
56
71
38
28
88
39
72
83
62
50
2
35
68
77
30
41
59
3
73
89
21
80
54
6
75
22
98
58
34
90
25
17
8
47
31
67
55
42
20
64
79
15
13
65
27
-1
EOF
